decision_x1=[0,2];
decision_x2=[0,2];
decision_x3=[0,2];
decision_x4=[0,2];
decision_x5=[0,2];
random_y1=[0,2];
constraint_x4_x1=[
0,0,0.52|
0,1,9.3|
0,2,6.9|
1,0,6.5|
1,1,9.1|
1,2,9.6|
2,0,3|
2,1,4.1|
2,2,5|
];
constraint_x4_x3=[
0,0,1.1|
0,1,0.98|
0,2,8.5|
1,0,1.1|
1,1,8.7|
1,2,2.8|
2,0,9.5|
2,1,0.96|
2,2,4.3|
];
constraint_x5_x1=[
0,0,3.8|
0,1,3.5|
0,2,6|
1,0,5.3|
1,1,2.9|
1,2,2.6|
2,0,9.3|
2,1,3.3|
2,2,8.9|
];
constraint_x5_x2=[
0,0,5.7|
0,1,8.4|
0,2,9|
1,0,2.7|
1,1,6|
1,2,5.3|
2,0,4.5|
2,1,8.3|
2,2,3|
];
constraint_x5_x3=[
0,0,0.87|
0,1,3|
0,2,8.2|
1,0,7.4|
1,1,5.1|
1,2,7.1|
2,0,4.4|
2,1,6.9|
2,2,1.6|
];
constraint_x1_y1=[
0,0,6.5|
0,1,2.1|
0,2,6.3|
1,0,6.8|
1,1,5.6|
1,2,6.2|
2,0,5.6|
2,1,4.8|
2,2,6|
];
initial_distribution_y1=[0.28,0.21,0.51];
transition_y1=[
0.31,0.11,0.59|
0.14,0.64,0.22|
0.54,0.24,0.22|
];
